
  32    1
  10

   0   0  11 2 3 4 5 6 9 10 12 13 16 17 
  10   6   6 31 28 18 14 8 7 
   3   7   6 28 26 25 18 14 11 
   7   8   5 28 26 22 14 11 
   4  10   5 28 27 22 19 11 
   5   8   8 30 28 26 25 24 23 22 20 
   8  10   7 30 26 25 24 22 21 20 
   4   6   4 29 25 22 15 
   7   4   4 29 25 22 15 
   2   8   4 27 25 24 15 
   8  10   3 24 23 15 
   7   8   4 26 25 24 23 
   1  10   3 21 20 18 
   1  10   3 27 23 21 
   8  10   2 21 20 
  10   9   2 26 23 
   3   8   2 22 20 
   9   9   1 22 
   9   6   1 23 
   5   9   1 32
   8   5   1 32
  10   8   1 32
   4  10   1 32
   5   6   1 32
   6  10   1 32
  10  10   1 32
   2   6   1 32
   5   7   1 32
   4   6   1 32
   1   9   1 32
   4   7   1 32
   0   0   0 
